\ This file has been generated by DOcplex
\ ENCODING=ISO-8859-1
\Problem name: random_problem.lp

Minimize
 obj: 374 x0 + 187 x1 + 26 x2 + 13 x3 - 108 x4 - 54 x5 + 586 x6 + 293 x7 + [
      600 x0^2 + 600 x0*x1 + 544 x0*x2 + 272 x0*x3 + 656 x0*x4 + 328 x0*x5
      + 96 x0*x6 + 48 x0*x7 + 150 x1^2 + 272 x1*x2 + 136 x1*x3 + 328 x1*x4
      + 164 x1*x5 + 48 x1*x6 + 24 x1*x7 + 560 x2^2 + 560 x2*x3 + 432 x2*x4
      + 216 x2*x5 + 496 x2*x6 + 248 x2*x7 + 140 x3^2 + 216 x3*x4 + 108 x3*x5
      + 248 x3*x6 + 124 x3*x7 + 360 x4^2 + 360 x4*x5 + 256 x4*x6 + 128 x4*x7
      + 90 x5^2 + 128 x5*x6 + 64 x5*x7 + 1240 x6^2 + 1240 x6*x7 + 310 x7^2 ]/2
Subject To
 c0: 2 x0 + x1 + 2 x2 + x3 + 2 x4 + x5 + 2 x6 + x7 = 3

Bounds
 0 <= x0 <= 1
 0 <= x1 <= 1
 0 <= x2 <= 1
 0 <= x3 <= 1
 0 <= x4 <= 1
 0 <= x5 <= 1
 0 <= x6 <= 1
 0 <= x7 <= 1

Binaries
 x0 x1 x2 x3 x4 x5 x6 x7
End
